language Essence 1.3

letting codeWordLength be 24
letting dist be
        function((1, 1) --> 0, (1, 2) --> 15, (1, 3) --> 15, (1, 4) --> 10, (1, 5) --> 4, (2, 1) --> 15, (2, 2) --> 0,
                 (2, 3) --> 14, (2, 4) --> 9, (2, 5) --> 12, (3, 1) --> 15, (3, 2) --> 14, (3, 3) --> 0, (3, 4) --> 5,
                 (3, 5) --> 17, (4, 1) --> 10, (4, 2) --> 9, (4, 3) --> 5, (4, 4) --> 0, (4, 5) --> 13, (5, 1) --> 4,
                 (5, 2) --> 12, (5, 3) --> 17, (5, 4) --> 13, (5, 5) --> 0)
letting maxDist be 18
letting minDist be 28
letting nbCharacter be 5
letting numOfCodeWords be 10
